836910
0,47,36,73,31,59,19,20,95,29,76,9,55,17,40,68,74,5,48,92,61,30,62,12,67,79,98,35,71,54,43,90,52,7,88,84,2,4,63,26,1,41,96,34,66,60,57,81,15,14,82,87,49,37,75,86,44,85,80,13,38,91,83,21,51,64,53,97,22,10,27,45,33,70,89,58,23,42,18,11,16,25,93,39,28,78,50,77,24,94,72,6,3,65,46,56,32,8,69,0